%%% static parameters %%%
timespan = 1;
Fact = [2];
Distr1 = [5];
Distr2 = [10];
Clients_N = [100];
Demand_W = [15];
Lt0 = [4];
Lt1 = [4];
SS_ = [0.85];
DS_D = [8];
K = [200];
MA = [500];
%%% dynamic parameters %%%
lost_ratio_sales_ret_th = 0.5706546326181516;
lost_ratio_sales_ret_w = 93;
lost_ratio_sales_dis_th = 0.67046529983794;
lost_ratio_sales_dis_w = 30;
lost_ratio_sales_fac_th = 0.5244669462730958;
lost_ratio_sales_fac_w = 33;
stock_customer_MA_mean_relative_th = 0.5721553225815785;
stock_customer_MA_mean_relative_w = 73;
stock_distributor_MA_mean_relative_th = 0.44458835353616144;
stock_distributor_MA_mean_relative_w = 48;
stock_retailer_MA_mean_relative_th = 0.6127526091005989;
stock_retailer_MA_mean_relative_w = 79;
stock_factory_MA_mean_relative_th = 0.5645131754830204;
stock_factory_MA_mean_relative_w = 61;
